atom_style atomic
units metal
variable n equal 5
lattice fcc 4.04527
region box block 0 $n 0 $n 0 $n units lattice
create_box 1 box
create_atoms 1 region box
pair_style eam/fs
pair_coeff * * Al_mm.eam.fs Al
neighbor 0.3 bin
region slice block 1.95 2.05 0 $n 0 $n units lattice
group slice region slice
dump d1 all custom 1 init.dump id type xs ys zs fx fy fz
run 0
displace_atoms slice move 0.05 0.0 0.0 units box
dump d2 all custom 1 displace.dump id type xs ys zs fx fy fz
run 0
